clingo version 5.7.1
Reading from Calendario.cl
Solving...
Answer: 1
partita(inter,milan,sansiro,1) partita(inter,juventus,sansiro,7) partita(inter,atalanta,sansiro,9) partita(inter,bologna,sansiro,3) partita(inter,roma,sansiro,4) partita(milan,inter,sansiro,8) partita(milan,juventus,sansiro,10) partita(milan,atalanta,sansiro,5) partita(milan,bologna,sansiro,6) partita(milan,roma,sansiro,2) partita(juventus,inter,allianz,5) partita(juventus,milan,allianz,3) partita(juventus,atalanta,allianz,6) partita(juventus,bologna,allianz,9) partita(juventus,roma,allianz,8) partita(bologna,inter,dallara,10) partita(bologna,milan,dallara,4) partita(bologna,juventus,dallara,2) partita(bologna,atalanta,dallara,8) partita(bologna,roma,dallara,5) partita(atalanta,inter,gewiss,2) partita(atalanta,milan,gewiss,7) partita(atalanta,juventus,gewiss,4) partita(atalanta,bologna,gewiss,1) partita(atalanta,roma,gewiss,10) partita(roma,inter,olimpicoRoma,6) partita(roma,milan,olimpicoRoma,9) partita(roma,juventus,olimpicoRoma,1) partita(roma,atalanta,olimpicoRoma,3) partita(roma,bologna,olimpicoRoma,7)
SATISFIABLE

Models       : 1+
Calls        : 1
Time         : 0.008s (Solving: 0.00s 1st Model: 0.00s Unsat: 0.00s)
CPU Time     : 0.008s
